/*********************************************
 * OPL 12.6.0.0 Data
 * Author: Adrian Rodriguez Bazaga, Pau Rodriguez Esmerats
 * Creation Date: 06/12/2017 at 23:04:56
 *********************************************/

nNurses=131;
maxConsec=2;
maxPresence=7;
maxHours=5;
minHours=1;
hours=24;
demand= [20 23 32 27 23 32 27 25 21 9 1 2 3 3 5 1 5 1 4 1 20 36 18 29  ];
